<number of tasks>
20

<cycle time>
1000

<order strength>
0,511


<task times>
1 132
2 120
3 514
4 190
5 209
6 457
7 163
8 491
9 503
10 138
11 138
12 247
13 230
14 169
15 29
16 120
17 247
18 104
19 286
20 154

<precedence relations>
1,9
2,9
3,9
4,5
4,6
4,7
4,8
5,9
6,9
7,10
7,11
7,16
9,12
9,13
9,14
9,15
10,17
10,18
11,18
12,16
13,16
13,17
16,18
17,19
17,20

<end>
